(set-info :smt-lib-version 2.6)
(set-logic QF_SLIA)
(set-info :source |
Generated by: Denghang Hu,
Generated on: 2023-03-29
Application: Evaluate string solvers
Description: The instance consists of:
(1) a regular membership predicate from the real world
(2) a regular membership predicate to sanitize danger letters in javascript such as <,>,&,",'
(3) a lower bound for string length
Target solver: Ostrich, Z3str3, CVC5
|)
(set-info :license "https://creativecommons.org/licenses/by/4.0/")
(set-info :category "industrial")
(set-info :status unknown)
        ;test regex r'Ended recipe step 2 for material (1A1\d[Y\d]\d{3}-\d\d) at elapsed time (\d\d+?.\d\d+?). Step type: EndPT,.{68,100}?(\d\d/\d\d).'
(declare-const X String)
(assert (str.in_re X (re.++ (re.++ (str.to_re "r") (re.++ (str.to_re "\u{27}") (re.++ (str.to_re "E") (re.++ (str.to_re "n") (re.++ (str.to_re "d") (re.++ (str.to_re "e") (re.++ (str.to_re "d") (re.++ (str.to_re " ") (re.++ (str.to_re "r") (re.++ (str.to_re "e") (re.++ (str.to_re "c") (re.++ (str.to_re "i") (re.++ (str.to_re "p") (re.++ (str.to_re "e") (re.++ (str.to_re " ") (re.++ (str.to_re "s") (re.++ (str.to_re "t") (re.++ (str.to_re "e") (re.++ (str.to_re "p") (re.++ (str.to_re " ") (re.++ (str.to_re "2") (re.++ (str.to_re " ") (re.++ (str.to_re "f") (re.++ (str.to_re "o") (re.++ (str.to_re "r") (re.++ (str.to_re " ") (re.++ (str.to_re "m") (re.++ (str.to_re "a") (re.++ (str.to_re "t") (re.++ (str.to_re "e") (re.++ (str.to_re "r") (re.++ (str.to_re "i") (re.++ (str.to_re "a") (re.++ (str.to_re "l") (re.++ (str.to_re " ") (re.++ (re.++ (str.to_re "1") (re.++ (str.to_re "A") (re.++ (str.to_re "1") (re.++ (re.range "0" "9") (re.++ (re.union (str.to_re "Y") (re.range "0" "9")) (re.++ ((_ re.loop 3 3) (re.range "0" "9")) (re.++ (str.to_re "-") (re.++ (re.range "0" "9") (re.range "0" "9"))))))))) (re.++ (str.to_re " ") (re.++ (str.to_re "a") (re.++ (str.to_re "t") (re.++ (str.to_re " ") (re.++ (str.to_re "e") (re.++ (str.to_re "l") (re.++ (str.to_re "a") (re.++ (str.to_re "p") (re.++ (str.to_re "s") (re.++ (str.to_re "e") (re.++ (str.to_re "d") (re.++ (str.to_re " ") (re.++ (str.to_re "t") (re.++ (str.to_re "i") (re.++ (str.to_re "m") (re.++ (str.to_re "e") (re.++ (str.to_re " ") (re.++ (re.++ (re.range "0" "9") (re.++ (re.+ (re.range "0" "9")) (re.++ (re.diff re.allchar (str.to_re "\n")) (re.++ (re.range "0" "9") (re.+ (re.range "0" "9")))))) (re.++ (re.diff re.allchar (str.to_re "\n")) (re.++ (str.to_re " ") (re.++ (str.to_re "S") (re.++ (str.to_re "t") (re.++ (str.to_re "e") (re.++ (str.to_re "p") (re.++ (str.to_re " ") (re.++ (str.to_re "t") (re.++ (str.to_re "y") (re.++ (str.to_re "p") (re.++ (str.to_re "e") (re.++ (str.to_re ":") (re.++ (str.to_re " ") (re.++ (str.to_re "E") (re.++ (str.to_re "n") (re.++ (str.to_re "d") (re.++ (str.to_re "P") (str.to_re "T")))))))))))))))))))))))))))))))))))))))))))))))))))))))))))))))))))))))) (re.++ (str.to_re ",") (re.++ ((_ re.loop 68 100) (re.diff re.allchar (str.to_re "\n"))) (re.++ (re.++ (re.range "0" "9") (re.++ (re.range "0" "9") (re.++ (str.to_re "/") (re.++ (re.range "0" "9") (re.range "0" "9"))))) (re.++ (re.diff re.allchar (str.to_re "\n")) (str.to_re "\u{27}"))))))))
; sanitize danger characters:  < > ' " &
(assert (not (str.in_re X (re.++ re.all (re.union (str.to_re "\u{3c}") (str.to_re "\u{3e}") (str.to_re "\u{27}") (str.to_re "\u{22}") (str.to_re "\u{26}")) re.all))))
(assert (< 50 (str.len X)))
(check-sat)
(exit)
